
  22    4
  10   10   10   10

   0   0   0   0   0   3 2 3 8 
   4  10  10  10  10   6 12 9 7 6 5 4 
   2  10  10  10  10   3 16 9 5 
   8  10  10  10  10   4 14 13 11 10 
   5  10  10  10  10   3 14 13 10 
   7  10  10  10  10   3 21 16 14 
   3  10  10  10  10   4 21 18 17 14 
  10  10  10  10  10   4 21 18 17 14 
   1  10  10  10  10   2 14 13 
   1  10  10  10  10   3 20 19 15 
   2  10  10  10  10   4 21 20 18 17 
   1  10  10  10  10   4 20 19 18 17 
   2  10  10  10  10   3 21 19 17 
   9  10  10  10  10   2 20 19 
   8  10  10  10  10   2 18 17 
   3  10  10  10  10   2 18 17 
   5  10  10  10  10   1 22
   3  10  10  10  10   1 22
   3  10  10  10  10   1 22
   6  10  10  10  10   1 22
   3  10  10  10  10   1 22
   0   0   0   0   0   0 
